/*********************************************
 * OPL 12.6.0.0 Data
 * Author: Adrian Rodriguez Bazaga, Pau Rodriguez Esmerats
 * Creation Date: 18/12/2017 at 23:50:01
 *********************************************/

maxConsec=5;
maxPresence=16;
maxHours=10;
minHours=6;
hours=24;
demand= [28 40 39 28 25 27 32 33 31 37 18 14 9 6 5 4 1 0 0 0 0 0 0 0  ];
nNurses=64;
centroides=3;
